720
719
718
717
716
715
714
713
713
712
711
710
709
708
707
707
706
705
705
704
703
702
701
699
700
699
698
698
697
696
695
694
694
693
692
692
691
691
690
690
689
688
688
687
687
687
686
686
685
684
683
682
681
681
680
679
678
677
677
676
676
675
674
674
674
673
672
672
672
671
671
670
669
668
665
667
666
665
664
664
663
662
661
661
660
659
658
657
656
655
655
654
653
654
653
652
652
650
651
650
649
648
648
646
647
646
645
644
643
642
642
641
640
639
639
638
638
637
636
636
635
634
633
633
632
631
630
629
628
627
626
625
625
624
623
622
621
620
619
618
617
615
616
615
613
614
613
612
611
610
609
608
606
607
606
605
604
604
603
601
602
602
601
600
599
600
599
598
598
597
596
595
595
594
593
592
590
591
588
590
589
588
587
586
585
584
584
583
583
583
582
581
581
580
580
579
579
578
577
576
576
575
575
574
573
572
571
570
569
567
568
567
566
565
564
565
564
563
563
562
562
561
560
560
559
558
558
557
557
556
553
555
554
552
553
552
551
550
550
550
550
549
548
547
546
546
545
544
543
542
541
540
539
539
538
538
537
537
536
536
535
534
534
533
531
532
532
531
530
529
528
527
526
525
524
523
523
522
522
520
521
520
519
518
517
516
516
515
514
513
512
511
510
509
508
509
508
507
506
505
504
504
504
503
503
502
501
501
500
500
499
496
498
497
496
495
494
493
492
491
490
490
489
488
488
487
486
485
483
484
483
482
482
481
480
479
479
479
478
478
477
477
476
476
475
475
474
473
472
471
470
469
468
467
466
465
464
463
462
461
460
459
458
457
457
456
455
455
454
453
453
452
452
451
450
451
451
450
449
448
445
447
446
445
444
443
442
441
440
439
438
437
436
435
434
433
432
431
430
429
428
427
426
425
426
425
424
424
423
422
421
420
420
419
418
417
416
416
415
413
414
413
412
411
410
410
409
409
408
407
407
406
405
404
403
402
401
401
400
399
398
398
397
396
395
394
394
393
393
393
392
390
391
390
389
388
387
387
386
386
386
385
385
385
384
383
382
382
382
380
381
380
379
379
378
379
378
377
376
376
374
375
374
373
372
371
370
369
368
367
366
365
364
363
362
362
361
360
360
359
359
358
358
357
357
356
356
355
355
354
354
353
353
352
352
351
351
350
350
349
348
347
346
345
345
344
343
342
342
341
340
339
340
339
338
338
337
335
337
336
336
335
334
331
333
332
331
330
329
329
328
328
327
325
326
325
324
323
322
321
321
321
320
319
319
317
318
317
316
316
315
315
315
314
311
313
312
311
311
310
309
308
307
307
306
305
305
304
303
301
302
301
300
300
299
298
297
297
296
295
294
294
291
293
293
292
291
291
290
290
289
288
287
285
286
285
283
284
283
282
282
282
281
279
280
279
278
277
277
276
276
275
274
272
273
272
271
270
269
268
267
267
266
265
265
264
264
263
263
262
262
261
261
260
259
258
257
257
256
256
255
254
253
252
251
251
250
249
248
247
247
246
246
245
244
243
242
242
242
241
241
240
239
238
237
236
235
234
233
232
231
230
229
228
227
227
226
225
225
224
223
222
221
221
220
220
219
218
217
217
216
216
215
214
213
212
211
210
210
209
208
207
207
206
205
203
204
203
202
201
200
199
198
197
196
195
194
193
193
192
191
192
191
190
190
189
188
187
186
186
185
184
183
182
181
180
179
178
177
176
175
175
174
173
172
171
170
169
168
167
166
165
164
163
163
162
162
161
159
160
159
158
157
156
155
153
155
154
154
153
152
150
151
150
150
149
148
147
147
146
146
145
145
144
143
143
142
141
140
139
139
138
137
137
137
136
136
135
133
134
132
133
131
132
131
130
130
129
128
128
127
127
126
124
125
124
123
123
122
122
121
120
118
118
119
118
117
118
117
116
115
114
114
113
113
113
112
111
111
110
110
109
108
107
106
105
104
103
102
101
101
100
99
98
97
96
95
95
94
93
93
92
91
90
89
88
87
86
85
84
83
82
81
80
79
78
77
76
76
75
74
73
73
72
72
71
70
70
69
67
68
67
66
66
65
65
65
64
63
62
61
60
59
58
57
56
55
54
53
52
51
51
50
49
48
48
47
46
45
45
44
43
42
42
41
40
39
38
37
37
36
36
35
35
34
34
33
32
31
30
29
27
28
27
25
26
26
25
24
23
23
22
20
17
21
20
19
18
17
16
15
14
13
10
12
11
10
9
8
7
7
6
6
5
4
5
4
3
2
1
0